db/data/6204481260453094541511425919668947.z3.out
unsat
-------------------
19.490669221
